s = array1d(1..225, [0, 0, 6, 0, 11, 5, 0, 0, 1, 0, 9, 14, 0, 0, 7, 6, 0, 9, 0, 7, 0, 0, 0, 0, 3, 0, 8, 14, 0, 0, 0, 4, 0, 8, 10, 11, 0, 3, 0, 13, 0, 1, 0, 0, 0, 14, 1, 11, 0, 13, 4, 0, 0, 0, 0, 0, 0, 12, 8, 0, 9, 0, 0, 13, 0, 2, 0, 0, 0, 0, 4, 0, 10, 3, 0, 0, 11, 0, 9, 2, 0, 0, 8, 7, 0, 12, 0, 0, 0, 14, 0, 7, 0, 2, 0, 0, 13, 0, 5, 0, 14, 0, 11, 0, 0, 7, 0, 2, 10, 4, 14, 0, 0, 6, 0, 0, 0, 0, 5, 0, 8, 0, 0, 0, 0, 12, 9, 11, 0, 1, 10, 7, 0, 0, 0, 0, 6, 0, 0, 8, 0, 2, 0, 14, 7, 0, 0, 0, 1, 12, 11, 0, 0, 0, 0, 1, 8, 0, 0, 4, 0, 10, 7, 0, 13, 13, 0, 12, 4, 0, 0, 0, 5, 0, 0, 2, 0, 0, 9, 0, 0, 10, 8, 0, 0, 0, 0, 1, 0, 11, 0, 13, 3, 0, 5, 0, 0, 0, 5, 0, 0, 12, 4, 9, 0, 1, 0, 0, 14, 0, 0, 3, 0, 0, 0, 0, 5, 0, 0, 10, 0, 0, 13, 12, 9]);
n = 15;
